 11 5
 0 375 1  12 2 142 3 245 4 412
 0 632 1 452 2 758 3 278 4 398
 0  12 1 876 2 124 3 534 4 765
 0 460 1 542 2 523 3 120 4 499
 0 528 1 101 2 789 3 124 4 999
 0 796 1 245 2 632 3 375 4 123
 0 532 1 230 2 543 3 896 4 452
 0  14 1 124 2 214 3 543 4 785
 0 257 1 527 2 753 3 210 4 463
 0 896 1 896 2 214 3 258 4 259
 0 532 1 302 2 501 3 765 4 988

